(declare-fun ExpandObjSwitcher () Real)
(declare-fun Constructed_Argument_t () String)
(declare-fun CreateAsClass () Bool)
(declare-fun Constructed_Argument () String)
(declare-fun |IsMatch_/BSx1BBS[BSd+m/_0| () Bool)
(declare-fun Constructed_Argument_2_t () String)
(declare-fun Constructed_Argument_3_t () String)
(declare-fun Constructed_Argument_4_t () String)
(declare-fun Constructed_Argument_5_t () String)
(declare-fun Constructed_Argument_6_t () String)
(declare-fun Constructed_Argument_7_t () String)
(declare-fun Constructed_Argument_8_t () String)
(declare-fun Constructed_Argument_9_t () String)
(assert (= ExpandObjSwitcher 3.0))
(assert (= Constructed_Argument_t "string"))
(assert CreateAsClass)
(assert (not (str.in.re Constructed_Argument (re.++ (re.* (re.range "\x00" "\xff")) (str.to.re "\x1B[") (re.range "0" "9") (re.* (re.range "0" "9")) (str.to.re "m") (re.* (re.range "\x00" "\xff"))))))
(assert (not |IsMatch_/BSx1BBS[BSd+m/_0|))
(assert (not (<= (to_real (str.len Constructed_Argument)) 0.0)))
(assert (not (= Constructed_Argument_2_t "string")))
(assert (not (= Constructed_Argument_2_t "number")))
(assert (not (= Constructed_Argument_2_t "boolean")))
(assert (not (= Constructed_Argument_2_t "object")))
(assert (not (= Constructed_Argument_2_t "array_number")))
(assert (not (= Constructed_Argument_2_t "array_string")))
(assert (not (= Constructed_Argument_2_t "array_bool")))
(assert (not (= Constructed_Argument_2_t "null")))
(assert (not (<= (to_real (str.len Constructed_Argument)) 1.0)))
(assert (not (= Constructed_Argument_3_t "string")))
(assert (not (= Constructed_Argument_3_t "number")))
(assert (not (= Constructed_Argument_3_t "boolean")))
(assert (not (= Constructed_Argument_3_t "object")))
(assert (not (= Constructed_Argument_3_t "array_number")))
(assert (not (= Constructed_Argument_3_t "array_string")))
(assert (not (= Constructed_Argument_3_t "array_bool")))
(assert (not (= Constructed_Argument_3_t "null")))
(assert (not (<= (to_real (str.len Constructed_Argument)) 2.0)))
(assert (not (= Constructed_Argument_4_t "string")))
(assert (not (= Constructed_Argument_4_t "number")))
(assert (not (= Constructed_Argument_4_t "boolean")))
(assert (not (= Constructed_Argument_4_t "object")))
(assert (not (= Constructed_Argument_4_t "array_number")))
(assert (not (= Constructed_Argument_4_t "array_string")))
(assert (not (= Constructed_Argument_4_t "array_bool")))
(assert (not (= Constructed_Argument_4_t "null")))
(assert (not (<= (to_real (str.len Constructed_Argument)) 3.0)))
(assert (not (= Constructed_Argument_5_t "string")))
(assert (not (= Constructed_Argument_5_t "number")))
(assert (not (= Constructed_Argument_5_t "boolean")))
(assert (not (= Constructed_Argument_5_t "object")))
(assert (not (= Constructed_Argument_5_t "array_number")))
(assert (not (= Constructed_Argument_5_t "array_string")))
(assert (not (= Constructed_Argument_5_t "array_bool")))
(assert (not (= Constructed_Argument_5_t "null")))
(assert (not (<= (to_real (str.len Constructed_Argument)) 4.0)))
(assert (not (= Constructed_Argument_6_t "string")))
(assert (not (= Constructed_Argument_6_t "number")))
(assert (not (= Constructed_Argument_6_t "boolean")))
(assert (not (= Constructed_Argument_6_t "object")))
(assert (not (= Constructed_Argument_6_t "array_number")))
(assert (not (= Constructed_Argument_6_t "array_string")))
(assert (not (= Constructed_Argument_6_t "array_bool")))
(assert (not (= Constructed_Argument_6_t "null")))
(assert (not (<= (to_real (str.len Constructed_Argument)) 5.0)))
(assert (not (= Constructed_Argument_7_t "string")))
(assert (not (= Constructed_Argument_7_t "number")))
(assert (not (= Constructed_Argument_7_t "boolean")))
(assert (not (= Constructed_Argument_7_t "object")))
(assert (not (= Constructed_Argument_7_t "array_number")))
(assert (not (= Constructed_Argument_7_t "array_string")))
(assert (not (= Constructed_Argument_7_t "array_bool")))
(assert (not (= Constructed_Argument_7_t "null")))
(assert (not (<= (to_real (str.len Constructed_Argument)) 6.0)))
(assert (not (= Constructed_Argument_8_t "string")))
(assert (not (= Constructed_Argument_8_t "number")))
(assert (not (= Constructed_Argument_8_t "boolean")))
(assert (not (= Constructed_Argument_8_t "object")))
(assert (not (= Constructed_Argument_8_t "array_number")))
(assert (not (= Constructed_Argument_8_t "array_string")))
(assert (not (= Constructed_Argument_8_t "array_bool")))
(assert (not (= Constructed_Argument_8_t "null")))
(assert (not (<= (to_real (str.len Constructed_Argument)) 7.0)))
(assert (not (= Constructed_Argument_9_t "string")))
(assert (not (= Constructed_Argument_9_t "number")))
(assert (not (= Constructed_Argument_9_t "boolean")))
(assert (not (= Constructed_Argument_9_t "object")))
(assert (= Constructed_Argument_9_t "array_number"))
(check-sat)
